Set parameter Username
Set parameter LicenseID to value 2721990
Academic license - for non-commercial use only - expires 2026-10-14
Set parameter MIPGap to value 0.001
Set parameter TimeLimit to value 300
Set parameter FeasibilityTol to value 1e-07
Set parameter IntFeasTol to value 1e-07
Set parameter OptimalityTol to value 1e-07
Set parameter NumericFocus to value 3
Set parameter NumericFocus to value 1
Set parameter MIPFocus to value 3
Set parameter Cuts to value 2
Set parameter Presolve to value 2
Set parameter Symmetry to value 2
Set parameter Method to value 2
Gurobi Optimizer version 11.0.3 build v11.0.3rc0 (win64 - Windows 11+.0 (26200.2))

CPU model: Intel(R) Core(TM) i7-8565U CPU @ 1.80GHz, instruction set [SSE2|AVX|AVX2]
Thread count: 4 physical cores, 8 logical processors, using up to 8 threads

Optimize a model with 90559 rows, 20842 columns and 201006 nonzeros
Model fingerprint: 0xeab10352
Model has 12 quadratic constraints
Model has 130 general constraints
Variable types: 389 continuous, 20453 integer (20419 binary)
Coefficient statistics:
  Matrix range     [5e-08, 1e+06]
  QMatrix range    [4e-01, 1e+00]
  QLMatrix range   [4e-01, 7e+03]
  Objective range  [1e+00, 1e+00]
  Bounds range     [1e+00, 1e+06]
  RHS range        [1e+00, 1e+06]
  PWLCon x range   [1e+01, 1e+01]
  PWLCon y range   [3e+04, 9e+05]
  GenCon rhs range [1e+00, 1e+00]
  GenCon coe range [1e+00, 1e+00]
Warning: Model contains large matrix coefficient range
Presolve removed 81429 rows and 13518 columns (presolve time = 5s) ...
Presolve removed 81429 rows and 13754 columns (presolve time = 10s) ...
Presolve removed 81734 rows and 13779 columns (presolve time = 15s) ...
Presolve removed 81734 rows and 13781 columns (presolve time = 20s) ...
Presolve removed 81736 rows and 13781 columns (presolve time = 25s) ...
Presolve removed 81483 rows and 13492 columns
Presolve time: 27.88s
Presolved: 9091 rows, 7365 columns, 54989 nonzeros
Presolved model has 137 SOS constraint(s)
Variable types: 249 continuous, 7116 integer (7104 binary)
Root relaxation presolve removed 114 rows and 102 columns
Root relaxation presolved: 8977 rows, 7263 columns, 54579 nonzeros

Root barrier log...

Ordering time: 0.54s
Ordering time: 0.92s

Barrier statistics:
 Dense cols : 189
 AA' NZ     : 1.892e+05
 Factor NZ  : 2.303e+06 (roughly 25 MB of memory)
 Factor Ops : 2.093e+09 (less than 1 second per iteration)
 Threads    : 4

                  Objective                Residual
Iter       Primal          Dual         Primal    Dual     Compl     Time
   0   9.89343919e+05  5.44372145e+07  2.80e+04 1.11e+02  4.66e+05    30s
   1   7.80571131e+05  9.93929083e+07  1.78e+04 7.33e+02  2.80e+05    30s
   2   6.15216325e+05  1.35394772e+08  9.17e+03 4.07e+01  1.42e+05    30s
   3   4.63866345e+05  1.00756013e+08  1.77e+03 6.88e-11  2.90e+04    30s
   4   4.58298358e+05  6.30226537e+07  6.79e+02 2.29e-03  1.12e+04    30s
   5   4.80639121e+05  4.05334742e+07  3.40e+02 7.38e-03  5.56e+03    30s
   6   4.95122261e+05  2.74326102e+07  2.13e+02 5.17e-03  3.36e+03    30s
   7   5.03104339e+05  1.39409522e+07  1.62e+02 2.17e-03  2.02e+03    30s
   8   5.11381284e+05  9.10040576e+06  8.56e+01 2.77e-03  1.09e+03    31s
   9   5.13370242e+05  4.21301691e+06  3.98e+01 5.88e-04  4.38e+02    31s
  10   3.16198624e+05  3.33701262e+06  2.18e+01 4.02e-04  2.75e+02    31s
  11   2.13768701e+05  1.84219482e+06  5.48e+00 3.12e-04  9.97e+01    31s
  12   2.17164552e+05  8.12483609e+05  1.53e+00 2.92e-04  3.13e+01    31s
  13   2.27472361e+05  4.99999147e+05  8.01e-01 1.00e-04  1.39e+01    31s
  14   2.31138810e+05  4.57437419e+05  6.96e-01 1.25e-04  1.15e+01    31s
  15   2.38117866e+05  4.14817284e+05  5.34e-01 1.03e-04  8.89e+00    31s
  16   2.41143071e+05  3.90951641e+05  4.32e-01 1.13e-04  7.46e+00    31s
  17   2.47371880e+05  3.75732790e+05  3.48e-01 1.09e-04  6.32e+00    31s
  18   2.53205830e+05  3.63157570e+05  2.55e-01 8.37e-05  5.33e+00    31s
  19   2.57146452e+05  3.44340572e+05  2.10e-01 3.03e-05  4.22e+00    31s
  20   2.60858480e+05  3.31206823e+05  1.75e-01 3.27e-05  3.40e+00    32s
  21   2.62134109e+05  3.28030778e+05  1.60e-01 3.58e-05  3.17e+00    32s
  22   2.66899531e+05  3.20299008e+05  1.20e-01 2.14e-05  2.55e+00    32s
  23   2.69858328e+05  3.06653123e+05  9.66e-02 2.10e-05  1.77e+00    32s
  24   2.71744684e+05  3.01075226e+05  8.25e-02 2.96e-05  1.41e+00    32s
  25   2.73196162e+05  2.94754400e+05  7.11e-02 7.32e-05  1.05e+00    32s
  26   2.74226856e+05  2.94363885e+05  6.52e-02 6.73e-05  9.78e-01    32s
  27   2.76104244e+05  2.93553647e+05  5.27e-02 7.74e-05  8.43e-01    32s
  28   2.77193857e+05  2.92374875e+05  4.63e-02 6.50e-05  7.33e-01    32s
  29   2.77607172e+05  2.92139751e+05  4.39e-02 5.80e-05  7.01e-01    33s
  30   2.79800789e+05  2.89387805e+05  3.13e-02 8.88e-05  4.65e-01    33s
  31   2.80728783e+05  2.88098370e+05  2.61e-02 3.62e-05  3.59e-01    33s
  32   2.81199760e+05  2.87294175e+05  2.35e-02 2.03e-04  2.99e-01    33s
  33   2.82800595e+05  2.86561133e+05  1.39e-02 1.99e-04  1.84e-01    33s
  34   2.83320943e+05  2.86035799e+05  1.09e-02 4.43e-04  1.33e-01    33s
  35   2.84178483e+05  2.85755751e+05  5.87e-03 2.52e-04  7.70e-02    33s
  36   2.84442126e+05  2.85612768e+05  4.43e-03 1.44e-04  5.72e-02    33s
  37   2.84741430e+05  2.85403007e+05  2.78e-03 7.52e-05  3.26e-02    33s
  38   2.84908033e+05  2.85349123e+05  1.81e-03 8.25e-05  2.17e-02    33s
  39   2.84998271e+05  2.85334581e+05  1.31e-03 6.70e-05  1.65e-02    33s
  40   2.85099635e+05  2.85280466e+05  7.65e-04 1.03e-04  8.93e-03    33s
  41   2.85159331e+05  2.85249399e+05  4.35e-04 4.06e-05  4.51e-03    33s
  42   2.85237814e+05  2.85242446e+05  8.25e-06 9.35e-06  2.17e-04    34s
  43   2.85239903e+05  2.85241127e+05  2.68e-06 2.26e-08  5.78e-05    34s
  44   2.85240699e+05  2.85240902e+05  4.26e-07 1.29e-09  9.32e-06    34s
  45   2.85240877e+05  2.85240884e+05  5.74e-09 1.77e-09  3.31e-07    34s
  46   2.85240879e+05  2.85240879e+05  7.44e-07 3.29e-07  6.41e-10    34s

Barrier solved model in 46 iterations and 34.08 seconds (7.74 work units)
Optimal objective 2.85240879e+05


Root crossover log...

    2424 DPushes remaining with DInf 0.0000000e+00                34s
       0 DPushes remaining with DInf 0.0000000e+00                34s

       5 PPushes remaining with PInf 0.0000000e+00                34s
       0 PPushes remaining with PInf 0.0000000e+00                34s

  Push phase complete: Pinf 0.0000000e+00, Dinf 1.2783989e-11     34s


Root simplex log...

Iteration    Objective       Primal Inf.    Dual Inf.      Time
    1629    2.8524088e+05   0.000000e+00   0.000000e+00     34s
    1629    2.8524088e+05   0.000000e+00   0.000000e+00     34s

Root relaxation: objective 2.852409e+05, 1629 iterations, 5.89 seconds (2.21 work units)

    Nodes    |    Current Node    |     Objective Bounds      |     Work
 Expl Unexpl |  Obj  Depth IntInf | Incumbent    BestBd   Gap | It/Node Time

     0     0 285240.879    0 1722          - 285240.879      -     -   37s
H    0     0                    9496.8257708 285240.879  2904%     -   43s
H    0     0                    12004.618027 285240.879  2276%     -   43s
     0     0 244565.708    0 2229 12004.6180 244565.708  1937%     -   47s
H    0     0                    12784.300203 244305.900  1811%     -   47s
